c Arquivo convertido de bcsstk03.mtx
p edge 112 264
e 1 4
e 1 5
e 1 8
e 2 3
e 2 6
e 2 7
e 3 6
e 3 7
e 4 5
e 4 8
e 5 8
e 5 9
e 5 12
e 6 7
e 6 10
e 6 11
e 7 10
e 7 11
e 8 9
e 8 12
e 9 12
e 9 13
e 9 16
e 10 11
e 10 14
e 10 15
e 11 14
e 11 15
e 12 13
e 12 16
e 13 17
e 13 20
e 14 18
e 14 19
e 15 18
e 15 19
e 16 17
e 16 20
e 17 21
e 17 24
e 18 22
e 18 23
e 19 22
e 19 23
e 20 21
e 20 24
e 21 25
e 21 28
e 22 26
e 22 27
e 23 26
e 23 27
e 24 25
e 24 28
e 25 28
e 25 29
e 25 32
e 26 27
e 26 30
e 26 31
e 27 30
e 27 31
e 28 29
e 28 32
e 29 32
e 29 33
e 29 36
e 30 31
e 30 34
e 30 35
e 31 34
e 31 35
e 32 33
e 32 36
e 33 36
e 33 37
e 33 40
e 34 35
e 34 38
e 34 39
e 35 38
e 35 39
e 36 37
e 36 40
e 37 40
e 37 41
e 37 44
e 38 39
e 38 42
e 38 43
e 39 42
e 39 43
e 40 41
e 40 44
e 41 44
e 41 45
e 41 48
e 42 43
e 42 46
e 42 47
e 43 46
e 43 47
e 44 45
e 44 48
e 45 48
e 45 49
e 45 52
e 46 47
e 46 50
e 46 51
e 47 50
e 47 51
e 48 49
e 48 52
e 49 52
e 49 53
e 49 56
e 50 51
e 50 54
e 50 55
e 51 54
e 51 55
e 52 53
e 52 56
e 53 56
e 53 57
e 53 60
e 54 55
e 54 58
e 54 59
e 55 58
e 55 59
e 56 57
e 56 60
e 57 60
e 57 61
e 57 64
e 58 59
e 58 62
e 58 63
e 59 62
e 59 63
e 60 61
e 60 64
e 61 64
e 61 65
e 61 68
e 62 63
e 62 66
e 62 67
e 63 66
e 63 67
e 64 65
e 64 68
e 65 68
e 65 69
e 65 72
e 66 67
e 66 70
e 66 71
e 67 70
e 67 71
e 68 69
e 68 72
e 69 73
e 69 76
e 70 74
e 70 75
e 71 74
e 71 75
e 72 73
e 72 76
e 73 76
e 73 77
e 73 80
e 74 75
e 74 78
e 74 79
e 75 78
e 75 79
e 76 77
e 76 80
e 77 80
e 77 81
e 77 84
e 78 79
e 78 82
e 78 83
e 79 82
e 79 83
e 80 81
e 80 84
e 81 84
e 81 85
e 81 88
e 82 83
e 82 86
e 82 87
e 83 86
e 83 87
e 84 85
e 84 88
e 85 88
e 85 89
e 85 92
e 86 87
e 86 90
e 86 91
e 87 90
e 87 91
e 88 89
e 88 92
e 89 92
e 89 93
e 89 96
e 90 91
e 90 94
e 90 95
e 91 94
e 91 95
e 92 93
e 92 96
e 93 96
e 93 97
e 93 100
e 94 95
e 94 98
e 94 99
e 95 98
e 95 99
e 96 97
e 96 100
e 97 100
e 97 101
e 97 104
e 98 99
e 98 102
e 98 103
e 99 102
e 99 103
e 100 101
e 100 104
e 101 104
e 101 105
e 101 108
e 102 103
e 102 106
e 102 107
e 103 106
e 103 107
e 104 105
e 104 108
e 105 108
e 105 109
e 105 112
e 106 107
e 106 110
e 106 111
e 107 110
e 107 111
e 108 109
e 108 112
e 109 112
e 110 111
